
  22   10
  10   10   10   10   10   10   10   10   10   10

   0   0   0   0   0   0   0   0   0   0   0   8 2 3 8 9 10 11 20 21 
   7   0   0   0   0   0  10   0   0   0   0   3 19 14 4 
   6   0   0   0   0   0   0   0   0  10   0   5 18 17 14 13 7 
   2   0  10   0   0   0   0   0   0   0   0   3 16 15 5 
   6   0   0   0   0  10   0   0   0   0   0   1 6 
   3   0   0   0  10   0   0   0   0   0   0   1 7 
   7   0   0   0   0   0   0  10   0   0   0   1 12 
   4   0   0   0   0   0   0   0  10   0   0   1 14 
   7   0   0   0   0   0   0   0  10   0   0   1 13 
   7   0   0   0   0   0   0   0  10   0   0   1 13 
   5   0   0   0   0   0   0   0   0   0  10   1 13 
   3   0   0   0   0   0  10   0   0   0   0   1 22
   1   0   0   0   0  10   0   0   0   0   0   1 22
  10   0   0  10   0   0   0   0   0   0   0   1 22
   8   0   0   0   0   0   0  10   0   0   0   1 22
   4   0   0   0   0   0   0   0  10   0   0   1 22
   2   0   0   0  10   0   0   0   0   0   0   1 22
   2   0   0  10   0   0   0   0   0   0   0   1 22
   8   0   0   0   0  10   0   0   0   0   0   1 22
   9   0   0   0   0   0   0  10   0   0   0   1 22
   7   0   0   0   0   0  10   0   0   0   0   1 22
   0   0   0   0   0   0   0   0   0   0   0   0 
